NAME : portcgen-19-28
COMMENT : portcgen N=19, seed=28
TYPE : TSP
DIMENSION : 19
EDGE_WEIGHT_TYPE : EUC_2D
NODE_COORD_SECTION
1 162004 -119173
2 255594 -228164
3 -214961 387718
4 -126245 86176
5 -173047 -29362
6 -460805 -122498
7 257035 -259598
8 -18352 451925
9 58138 243407
10 -242792 378172
11 -38983 93678
12 307057 -378378
13 378394 -210213
14 -222748 -182423
15 -6758 -7737
16 222256 -235707
17 245958 -7277
18 -180169 -183299
19 -99483 -153132
